GLPSOL: GLPK LP/MIP Solver, v4.55
Parameter(s) specified in the command line:
 -m tmp.mod
Reading model section from tmp.mod...
Reading data section from tmp.mod...
1470 lines were read
Generating obj...
Generating kirhoff...
Generating init_charge...
Generating batt_size...
Model has been successfully generated
GLPK Simplex Optimizer, v4.55
1860 rows, 1759 columns, 3532 non-zeros
Preprocessing...
985 rows, 1726 columns, 3473 non-zeros
Scaling...
 A: min|aij| =  1.000e+00  max|aij| =  1.000e+00  ratio =  1.000e+00
Problem data seem to be well scaled
Constructing initial basis...
Size of triangular part is 688
      0: obj =   0.000000000e+00  infeas =  8.230e+02 (297)
*   200: obj =   4.700000000e+01  infeas =  0.000e+00 (227)
*   242: obj =   0.000000000e+00  infeas =  0.000e+00 (224)
OPTIMAL LP SOLUTION FOUND
Time used:   0.0 secs
Memory used: 4.1 Mb (4297961 bytes)
#OUTPUT:
0
-63 0 -8 -83 -45 -3 -2 0 -80 0 -3 -3 3 0 -1 0 0 0 3 0 0 -16 -2 0 0 0 0 -2 0 0 -48 -5 -83 0 -5 0 0 1 0 0 0 0 0 0 0 0 0 0 0 0 0 0 0 0 0 0 0 0 0 0 0 0 0 0 -2 0 0 0 0 0 4 -1 0 0 0 0 4 0 0 0 0 0 0 0 0 0 0 0 0 0 0 45 0 0 0 0 0 0 5 0 0 0 0 0 0 0 0 0 3 0 0 0 0 0 0 -42 0 0 0 0 0 3 -2 0 0 0 0 0 5 0 0 0 0 0 -44 0 0 9 0 0 0 0 0 0 0 2 0 4 1 0 -5 0 0 -3 0 42 0 0 0 0 -3 0 -2 4 0 0 -5 0 0 0 0 0 0 0 0 0 0 0 0 0 0 0 0 0 0 0 0 0 0 0 0 0 0 0 0 0 0 0 0 0 0 0 0 0 0 0 0 0 0 0 0 0 0 0 0 0 0 0 0 0 0 0 0 0 0 0 0 0 0 0 0 0 0 0 0 0 0 0 0 0 0 0 0 0 0 0 0 0 0 0 0 0 0 0 0 0 0 0 0 0 0 0 0 0 0 0 0 0 0 0 0 0 0 0 0 0 0 0 0 0 0 0 0 0 
-84 0 0 -36 -67 0 -2 0 0 0 -11 -36 0 0 0 0 3 -3 9 3 0 -14 -15 0 0 0 0 2 0 0 0 0 0 0 0 -31 -1 0 0 0 0 0 0 6 0 0 0 0 0 0 0 0 0 0 0 3 0 0 0 0 0 -9 0 0 -2 0 0 0 0 0 2 1 0 0 0 0 0 0 0 0 0 0 0 0 0 0 0 0 0 0 0 0 0 0 0 0 0 0 0 0 0 0 0 0 -1 0 0 0 36 0 0 0 0 0 5 36 -5 0 0 0 0 3 2 0 1 0 0 -3 0 0 0 0 0 0 -1 9 0 0 0 0 0 -3 0 5 0 2 0 2 0 0 0 0 -4 -36 0 -36 5 0 0 0 -3 0 -2 0 -1 3 0 0 0 0 0 0 0 0 0 0 0 0 0 0 0 0 0 0 0 0 0 0 0 0 0 0 0 0 0 0 0 0 0 0 0 0 0 0 0 0 0 0 0 0 0 0 0 0 0 0 0 0 0 0 0 0 0 0 0 0 0 0 0 0 0 0 0 0 0 0 0 0 0 0 0 0 0 0 0 0 0 0 0 0 0 0 0 0 0 0 0 0 0 0 0 0 0 0 0 0 0 0 0 0 0 0 0 0 0 0 0 0 0 0 0 0 0 0 
-29 -68 -8 -54 -11 -3 -2 -47 -5 2 -11 -2 -4 0 25 0 -10 0 10 -10 0 -16 0 0 -16 -51 -51 0 0 0 -13 -5 -1 0 5 0 -2 6 0 0 0 0 4 0 0 0 0 16 1 -80 -16 0 0 0 0 -1 -13 0 0 -2 0 0 0 -1 -2 0 2 13 0 0 3 -1 0 0 1 0 0 0 0 0 0 0 0 0 0 0 0 0 0 0 0 2 -51 -1 0 0 0 0 6 0 0 0 0 0 0 0 -13 0 2 0 -3 0 0 0 0 0 0 0 0 0 -1 2 3 0 0 0 0 0 5 0 0 -13 0 0 0 9 51 -1 0 16 0 0 0 0 0 1 -2 3 6 0 -6 0 0 -2 3 0 0 0 0 1 -2 0 -7 4 0 0 -5 13 0 0 0 0 0 0 0 0 0 0 0 0 0 0 0 0 0 0 0 0 0 0 0 0 0 0 0 0 0 0 0 0 0 0 0 0 0 0 0 0 0 0 0 0 0 0 0 0 0 0 0 0 0 0 0 0 0 0 0 0 0 0 0 0 0 0 0 0 0 0 0 0 0 0 0 0 0 0 0 0 0 0 0 0 0 0 0 0 0 0 0 0 0 0 0 0 0 0 0 0 0 0 0 0 0 0 0 0 0 0 0 0 0 0 0 0 
#OUTPUT END
Model has been successfully processed
